132
100
6
23
4
15
22
4
13
2
19
4
9
11
8
8
9
3
16
19
21
2
11
8
9
12
1
23
1
10
8
5
6
19
12
2
16
15
10
8
12
11
22
17
14
18
7
9
22
5
6
18
4
13
15
12
6
7
19
1
15
10
24
2
20
24
12
14
5
2
19
9
20
11
13
5
12
3
1
5
4
13
15
17
15
13
5
22
16
10
6
2
5
11
1
25
8
5
13
4
6
24
8
19
3
12
5
22
19
25
9
13
21
2
8
5
4
14
18
22
4
11
16
18
19
5
1
15
19
8
23
3
12
19
